0.750000 1.000000 1.000000
5
4 2 3 4 5 
4 6 7 8 9 
4 10 11 12 13 
4 14 15 16 17 
4 18 19 20 21 
1 1 
1 2 
1 2 
1 2 
1 2 
1 2 
1 2 
1 2 
1 2 
1 2 
1 2 
1 2 
1 2 
1 2 
1 2 
1 2 
1 2 
1 2 
1 2 
1 2 
1 2 
1 2 
1 2 
1 2 
1 2 
1 2 
1 2 
1 2 
1 2 
1 2 
1 2 
1 2 
1 2 
1 2 
1 2 
1 2 
1 2 
1 2 
1 2 
1 2 
1 2 
1 2 
1 2 
1 2 
1 2 
1 2 
1 2 
1 2 
1 2 
1 2 
1 2 
1 2 
1 2 
1 3 
1 3 
1 3 
1 3 
1 3 
1 3 
1 3 
1 3 
1 3 
1 3 
1 3 
1 3 
1 4 
1 4 
1 4 
1 4 
1 4 
1 4 
1 4 
1 4 
1 4 
1 4 
1 4 
1 4 
1 4 
1 4 
1 4 
1 4 
1 4 
1 4 
1 4 
1 4 
1 4 
1 4 
1 4 
1 4 
1 4 
1 4 
1 4 
1 4 
1 4 
1 4 
1 4 
1 4 
1 4 
1 4 
1 4 
1 4 
1 4 
1 4 
1 4 
1 4 
1 4 
1 4 
1 4 
1 4 
1 4 
1 4 
1 4 
1 4 
1 4 
1 4 
1 4 
1 4 
1 5 
1 5 
1 5 
1 5 
1 5 
1 5 
1 5 
1 5 
1 5 
1 5 
1 5 
1 5 
1 5 
1 5 
1 5 
1 5 
1 5 
1 5 
1 5 
1 5 
1 5 
1 5 
1 5 
1 5 
1 5 
1 5 
1 5 
1 5 
1 5 
1 5 
1 5 
1 5 
1 5 
1 5 
1 5 
1 5 
1 5 
1 5 
1 5 
1 5 
1 5 
1 5 
1 5 
1 5 
1 5 
1 5 
1 5 
1 5 
1 5 
1 5 
1 5 
1 5 
1 6 
1 6 
1 6 
1 6 
1 6 
1 6 
1 6 
1 6 
1 6 
1 6 
1 6 
1 6 
1 6 
1 6 
1 6 
1 6 
1 6 
1 6 
1 6 
1 6 
1 6 
1 6 
1 6 
1 6 
1 6 
1 6 
1 6 
1 6 
1 6 
1 6 
1 6 
1 6 
1 6 
1 6 
1 6 
1 6 
1 6 
1 6 
1 6 
1 6 
1 6 
1 6 
1 7 
1 7 
1 7 
1 7 
1 7 
1 7 
1 7 
1 7 
1 7 
1 7 
1 7 
1 7 
1 7 
1 7 
1 7 
1 7 
1 7 
1 7 
1 7 
1 7 
1 7 
1 7 
1 7 
1 7 
1 7 
1 7 
1 7 
1 7 
1 7 
1 7 
1 7 
1 7 
1 7 
1 7 
1 7 
1 7 
1 7 
1 7 
1 7 
1 7 
1 7 
1 7 
1 8 
1 8 
1 8 
1 8 
1 8 
1 8 
1 8 
1 8 
1 8 
1 8 
1 8 
1 8 
1 8 
1 8 
1 8 
1 8 
1 8 
1 8 
1 8 
1 8 
1 8 
1 8 
1 8 
1 8 
1 8 
1 8 
1 8 
1 8 
2 8 6 
1 8 
2 8 6 
1 8 
1 8 
2 8 6 
2 8 6 
2 8 6 
2 8 6 
2 8 6 
2 8 6 
2 8 6 
1 8 
2 8 6 
1 9 
1 9 
1 9 
1 9 
1 9 
1 9 
1 9 
1 9 
1 9 
1 9 
1 9 
1 9 
1 10 
1 10 
1 10 
1 10 
1 10 
1 10 
1 10 
1 10 
1 10 
1 10 
1 10 
1 10 
1 11 
1 11 
1 11 
1 11 
1 11 
1 11 
1 11 
1 11 
1 11 
1 11 
1 11 
1 11 
1 11 
1 11 
1 11 
1 11 
1 11 
1 11 
1 11 
1 11 
1 11 
1 11 
1 11 
1 11 
1 11 
1 11 
1 11 
1 11 
1 11 
1 11 
1 11 
1 11 
1 12 
2 12 8 
1 12 
1 12 
2 12 8 
1 12 
2 12 8 
2 12 8 
1 12 
2 12 8 
2 12 8 
1 12 
2 12 8 
2 12 8 
2 12 8 
2 12 8 
2 12 8 
3 12 5 8 
2 12 8 
2 12 8 
2 12 8 
2 12 8 
2 12 8 
3 12 5 8 
2 12 8 
2 12 8 
1 12 
1 12 
1 12 
1 12 
1 12 
3 12 5 8 
1 13 
1 13 
1 13 
1 13 
1 13 
1 13 
1 13 
1 13 
1 13 
1 13 
1 13 
1 13 
1 13 
1 13 
1 13 
1 13 
1 13 
1 13 
1 13 
2 13 2 
1 13 
2 13 2 
1 13 
1 13 
1 13 
2 13 2 
2 13 2 
2 13 2 
2 13 2 
2 13 2 
1 13 
2 13 2 
1 14 
1 14 
1 14 
2 14 11 
1 14 
2 14 4 
2 14 11 
1 14 
1 14 
1 14 
1 14 
3 14 4 11 
1 15 
1 15 
1 15 
1 15 
1 15 
1 15 
1 15 
1 15 
1 15 
1 15 
1 15 
1 15 
1 15 
1 15 
1 15 
1 15 
1 15 
1 15 
1 15 
1 15 
1 15 
1 15 
1 16 
1 16 
1 16 
1 16 
1 16 
1 16 
1 16 
1 16 
1 16 
1 16 
1 16 
1 16 
1 16 
1 16 
1 16 
1 16 
1 16 
1 16 
1 16 
1 16 
1 16 
1 16 
1 17 
1 17 
1 17 
2 17 16 
1 17 
1 17 
1 17 
2 17 16 
2 17 16 
2 17 14 
1 17 
2 17 16 
2 17 16 
4 17 12 14 16 
2 17 16 
1 17 
4 17 12 14 16 
3 17 14 16 
2 17 16 
2 17 16 
3 17 14 16 
4 17 12 14 16 
1 18 
1 18 
1 18 
2 18 3 
1 18 
1 18 
1 18 
2 18 3 
2 18 3 
1 18 
1 18 
2 18 3 
1 19 
3 19 17 16 
1 19 
3 19 9 13 
2 19 18 
2 19 18 
1 19 
6 19 9 13 17 16 18 
3 19 17 16 
3 19 17 16 
4 19 7 9 13 
7 19 7 9 13 17 16 18 
1 20 
1 20 
2 20 10 
1 20 
1 20 
2 20 10 
1 20 
2 20 10 
2 20 10 
2 20 19 
1 20 
3 20 10 19 
1 21 
1 21 
1 21 
2 21 20 
1 21 
1 21 
1 21 
2 21 20 
3 21 15 20 
1 21 
1 21 
3 21 15 20 
1 1 
